StudentsNr = 10;
InstructorsNr = 70;
DaysNr = 1;
SlotsPerDay = 20;
AvailabilitySlotsLenght = 20;
RoomNr = 1;
ProgrammNr = 2;
DegreeNr = 3;
RolesNr = 4;
CoursesNr = 1;
InstructorsProgramm = [{1}, {1}, {1}, {1, 2}, {1}, {2}, {1}, {1}, {2}, {2}, {1}, {1}, {2}, {2}, {1}, {1, 2}, {2}, {2}, {2}, {1}, {2}, {1}, {2}, {2}, {1, 2}, {1, 2}, {1}, {1}, {1}, {1}, {1}, {2}, {1}, {2}, {1}, {1}, {1}, {1}, {2}, {1, 2}, {2}, {2}, {2}, {1, 2}, {1}, {2}, {2}, {2}, {2}, {1, 2}, {2}, {1}, {2}, {1}, {1}, {2}, {1}, {2}, {2}, {1}, {1}, {2}, {1}, {2}, {2}, {1, 2}, {2}, {1, 2}, {1}, {1}];
InstructorRolesPerProgramm = [|{2, 5, 7, 8, 20, 26, 30, 31, 33, 36, 38, 40, 45, 52, 57, 61, 63}, {2, 8, 11, 15, 20, 28, 33, 40, 50, 52, 57, 61, 70}, {5, 16, 22, 27, 28, 30, 40, 45, 60, 66}, {8, 11, 16, 22, 26, 30, 36, 38, 45, 52, 60, 61, 70}|{19, 21, 26, 40, 41, 43, 47, 48, 49, 58}, {13, 32, 34, 40, 47, 50, 53, 59, 62, 64}, {10, 16, 19, 21, 23, 34, 40, 43, 53, 66}, {9, 10, 16, 19, 23, 26, 32, 34, 43, 47, 49, 53, 62, 64, 67}|];
InstructorsAvailability = [|1, |0, |0, |1, |0, |0, |1, |0, |0, |1, |1, |0, |0, |1, |0, |0, |0, |1, |1, |0, |0, |0, |0, |1, |1, |1, |1, |0, |1, |1, |1, |1, |1, |1, |0, |0, |1, |1, |1, |1, |0, |0, |1, |1, |1, |0, |1, |1, |0, |1, |0, |1, |0, |1, |0, |1, |0, |0, |0, |1, |0, |1, |1, |1, |0, |0, |0, |1, |1, |1|];
StudentsProgramm = [1, 1, 1, 2, 2, 2, 2, 1, 2, 1];
StudentsDegree = [2, 2, 3, 3, 1, 3, 1, 1, 1, 2];
StudentsSupervisorId = [20, 25, 7, 47, 64, 9, 13, 44, 48, 35];
StudentsCourseIds = [{1}, {1}, {1}, {1}, {1}, {1}, {1}, {1}, {1}, {1}];
StudentsAvailability = [|0, |0, |1, |0, |0, |1, |1, |0, |0, |1|];
TheoryticalMinCard = [0, 0, 0, 0, 0, 0, 0, 1, 0, 1];
CoursesInstructorIds = [{1, 2, 3, 6, 7, 10, 14, 15, 16, 17, 25, 26, 27, 28, 30, 31, 37, 38, 39, 40, 41, 43, 46, 50, 51, 52, 53, 54, 55, 56, 57, 59, 60, 61, 62, 63, 65, 66, 67, 68, 69}];
RolesDemands = [9, 9, 4, 5];
RolesContinuity = [];
ExamLen = [1, 1, 2, 2, 2, 2, 2, 2, 2, 1];
LunchTsMinLen = 0;
LunchStarts = [10..12];
SupervisorAvailable = 5;
OptimalLunchLenght = [2, 0];
OptimalStartTs = [2, 0];
OptimalFinishTs = [2, 20];
MinimizeRooms = 100;
RolesSoftContinuity = [|1, 2, 3, 4|3, 2, 4, 3|];
SameDegreeInRoom = 10;
Mergeability = 2;
